certificates/rado_a12_c40_N33.drat
-29 -33 0
3 -33 0
-1 -33 0
d -6 -1 -33 0
-33 0
-1 -3 0
-3 0
7 0
29 0
-1 0
6 0
5 0
31 0
-26 0
-25 0
-9 0
-27 0
-11 0
30 0
22 0
21 0
4 0
13 0
2 0
23 0
15 0
-10 0
0
